\ENCODING=ISO-8859-1
\Problem name: 

Minimize
 obj1: 0.25 x37 + 0.25 x38 + 0.25 x39 + 0.479167 x40 + 0.0208333 x41
       + 0.354167 x42 + 0.479167 x43 + 0.145833 x44 + 0.354167 x45
       + 0.208333 x46 + 0.375 x47 + 0.479167 x48 + 0.479167 x49 + 0.145833 x50
       + 0.354167 x51 + 0.354167 x52 + 0.145833 x53 + 0.229167 x54
       + 0.208333 x55 + 0.791667 x56 + 0.375 x57 + 0.375 x58 + 0.479167 x59
       + 0.0208333 x60 + 0.0208333 x61 + 0.479167 x62 + 0.354167 x63
       + 0.354167 x64 + 0.177083 x65 + 0.53125 x66 + 0.208333 x67
       + 0.208333 x68 + 0.0729167 x69 + 0.177083 x70 + 0.53125 x71
       + 0.21875 x72 + 0.291667 x73 + 0.208333 x74 + 0.208333 x75
       + 0.291667 x76 + 0.71875 x77 + 0.46875 x78 + 0.177083 x79
       + 0.0729167 x80 + 0.208333 x81 + 0.291667 x82 + 0.177083 x83
       + 0.208333 x84 + 0.53125 x85 + 0.125 x86 + 0.125 x87 + 0.21875 x88
       + 0.53125 x89 + 0.375 x90 + 0.125 x91 + 0.125 x92 + 0.375 x93
       + 0.458333 x94 + 0.458333 x95 + 0.0729167 x96 + 0.177083 x97
       + 0.53125 x98 + 0.21875 x99 + 0.125 x100 + 0.375 x101 + 0.458333 x102
       + 0.177083 x103 + 0.53125 x104 + 0.125 x105 + 0.135417 x106
       + 0.40625 x107 + 0.0520833 x108 + 0.15625 x109 + 0.114583 x110
       + 0.135417 x111 + 0.40625 x112 + 0.34375 x113 + 0.197917 x114
       + 0.0520833 x115 + 0.15625 x116 + 0.59375 x117 + 0.135417 x118
       + 0.114583 x119 + 0.0520833 x120 + 0.197917 x121 + 0.135417 x122
       + 0.0520833 x123 + 0.666667 x124 + 0.333333 x125 + 0.666667 x126
       + 0.666667 x127 + 0.333333 x128 + 0.666667 x129
Subject To
 c1:   x1 + x2 + x3 + x4  = 1
 c2:   x5 + x6 + x7 + x8  = 1
 c3:   x9 + x10 + x11 + x12  = 1
 c4:   x13 + x14 + x15 + x16  = 1
 c5:   x17 + x18 + x19 + x20  = 1
 c6:   x21 + x22 + x23 + x24  = 1
 c7:   x25 + x26 + x27 + x28  = 1
 c8:   x29 + x30 + x31 + x32  = 1
 c9:   x33 + x34 + x35 + x36  = 1
 c10:  x1 + x10 - x37 <= 1
 c11:  x4 + x10 - x38 <= 1
 c12:  x4 + x11 - x39 <= 1
 c13:  x13 + x29 - x40 <= 1
 c14:  x13 + x30 - x41 <= 1
 c15:  x13 + x33 - x42 <= 1
 c16:  x14 + x30 - x43 <= 1
 c17:  x14 + x33 - x44 <= 1
 c18:  x14 + x34 - x45 <= 1
 c19:  x15 + x22 - x46 <= 1
 c20:  x15 + x26 - x47 <= 1
 c21:  x15 + x30 - x48 <= 1
 c22:  x15 + x31 - x49 <= 1
 c23:  x15 + x33 - x50 <= 1
 c24:  x15 + x34 - x51 <= 1
 c25:  x15 + x35 - x52 <= 1
 c26:  x15 + x36 - x53 <= 1
 c27:  x16 + x18 - x54 <= 1
 c28:  x16 + x21 - x55 <= 1
 c29:  x16 + x22 - x56 <= 1
 c30:  x16 + x25 - x57 <= 1
 c31:  x16 + x26 - x58 <= 1
 c32:  x16 + x29 - x59 <= 1
 c33:  x16 + x30 - x60 <= 1
 c34:  x16 + x31 - x61 <= 1
 c35:  x16 + x32 - x62 <= 1
 c36:  x16 + x33 - x63 <= 1
 c37:  x16 + x36 - x64 <= 1
 c38:  x17 + x21 - x65 <= 1
 c39:  x17 + x24 - x66 <= 1
 c40:  x17 + x25 - x67 <= 1
 c41:  x17 + x28 - x68 <= 1
 c42:  x18 + x21 - x69 <= 1
 c43:  x18 + x22 - x70 <= 1
 c44:  x18 + x23 - x71 <= 1
 c45:  x18 + x24 - x72 <= 1
 c46:  x18 + x25 - x73 <= 1
 c47:  x18 + x26 - x74 <= 1
 c48:  x18 + x27 - x75 <= 1
 c49:  x18 + x28 - x76 <= 1
 c50:  x18 + x32 - x77 <= 1
 c51:  x18 + x36 - x78 <= 1
 c52:  x19 + x23 - x79 <= 1
 c53:  x19 + x24 - x80 <= 1
 c54:  x19 + x27 - x81 <= 1
 c55:  x19 + x28 - x82 <= 1
 c56:  x20 + x24 - x83 <= 1
 c57:  x20 + x28 - x84 <= 1
 c58:  x21 + x25 - x85 <= 1
 c59:  x21 + x29 - x86 <= 1
 c60:  x21 + x32 - x87 <= 1
 c61:  x22 + x25 - x88 <= 1
 c62:  x22 + x26 - x89 <= 1
 c63:  x22 + x29 - x90 <= 1
 c64:  x22 + x30 - x91 <= 1
 c65:  x22 + x31 - x92 <= 1
 c66:  x22 + x32 - x93 <= 1
 c67:  x22 + x33 - x94 <= 1
 c68:  x22 + x36 - x95 <= 1
 c69:  x23 + x25 - x96 <= 1
 c70:  x23 + x26 - x97 <= 1
 c71:  x23 + x27 - x98 <= 1
 c72:  x23 + x28 - x99 <= 1
 c73:  x23 + x31 - x100 <= 1
 c74:  x23 + x32 - x101 <= 1
 c75:  x23 + x36 - x102 <= 1
 c76:  x24 + x25 - x103 <= 1
 c77:  x24 + x28 - x104 <= 1
 c78:  x24 + x32 - x105 <= 1
 c79:  x25 + x29 - x106 <= 1
 c80:  x25 + x32 - x107 <= 1
 c81:  x25 + x33 - x108 <= 1
 c82:  x25 + x36 - x109 <= 1
 c83:  x26 + x29 - x110 <= 1
 c84:  x26 + x30 - x111 <= 1
 c85:  x26 + x31 - x112 <= 1
 c86:  x26 + x32 - x113 <= 1
 c87:  x26 + x33 - x114 <= 1
 c88:  x26 + x34 - x115 <= 1
 c89:  x26 + x35 - x116 <= 1
 c90:  x26 + x36 - x117 <= 1
 c91:  x27 + x31 - x118 <= 1
 c92:  x27 + x32 - x119 <= 1
 c93:  x27 + x35 - x120 <= 1
 c94:  x27 + x36 - x121 <= 1
 c95:  x28 + x32 - x122 <= 1
 c96:  x28 + x36 - x123 <= 1
 c97:  x29 + x33 - x124 <= 1
 c98:  x30 + x33 - x125 <= 1
 c99:  x30 + x34 - x126 <= 1
 c100: x31 + x35 - x127 <= 1
 c101: x31 + x36 - x128 <= 1
 c102: x32 + x36 - x129 <= 1
Bounds
 0 <= x1 <= 1
 0 <= x2 <= 1
 0 <= x3 <= 1
 0 <= x4 <= 1
 0 <= x5 <= 1
 0 <= x6 <= 1
 0 <= x7 <= 1
 0 <= x8 <= 1
 0 <= x9 <= 1
 0 <= x10 <= 1
 0 <= x11 <= 1
 0 <= x12 <= 1
 0 <= x13 <= 1
 0 <= x14 <= 1
 0 <= x15 <= 1
 0 <= x16 <= 1
 0 <= x17 <= 1
 0 <= x18 <= 1
 0 <= x19 <= 1
 0 <= x20 <= 1
 0 <= x21 <= 1
 0 <= x22 <= 1
 0 <= x23 <= 1
 0 <= x24 <= 1
 0 <= x25 <= 1
 0 <= x26 <= 1
 0 <= x27 <= 1
 0 <= x28 <= 1
 0 <= x29 <= 1
 0 <= x30 <= 1
 0 <= x31 <= 1
 0 <= x32 <= 1
 0 <= x33 <= 1
 0 <= x34 <= 1
 0 <= x35 <= 1
 0 <= x36 <= 1
 0 <= x37 <= 1
 0 <= x38 <= 1
 0 <= x39 <= 1
 0 <= x40 <= 1
 0 <= x41 <= 1
 0 <= x42 <= 1
 0 <= x43 <= 1
 0 <= x44 <= 1
 0 <= x45 <= 1
 0 <= x46 <= 1
 0 <= x47 <= 1
 0 <= x48 <= 1
 0 <= x49 <= 1
 0 <= x50 <= 1
 0 <= x51 <= 1
 0 <= x52 <= 1
 0 <= x53 <= 1
 0 <= x54 <= 1
 0 <= x55 <= 1
 0 <= x56 <= 1
 0 <= x57 <= 1
 0 <= x58 <= 1
 0 <= x59 <= 1
 0 <= x60 <= 1
 0 <= x61 <= 1
 0 <= x62 <= 1
 0 <= x63 <= 1
 0 <= x64 <= 1
 0 <= x65 <= 1
 0 <= x66 <= 1
 0 <= x67 <= 1
 0 <= x68 <= 1
 0 <= x69 <= 1
 0 <= x70 <= 1
 0 <= x71 <= 1
 0 <= x72 <= 1
 0 <= x73 <= 1
 0 <= x74 <= 1
 0 <= x75 <= 1
 0 <= x76 <= 1
 0 <= x77 <= 1
 0 <= x78 <= 1
 0 <= x79 <= 1
 0 <= x80 <= 1
 0 <= x81 <= 1
 0 <= x82 <= 1
 0 <= x83 <= 1
 0 <= x84 <= 1
 0 <= x85 <= 1
 0 <= x86 <= 1
 0 <= x87 <= 1
 0 <= x88 <= 1
 0 <= x89 <= 1
 0 <= x90 <= 1
 0 <= x91 <= 1
 0 <= x92 <= 1
 0 <= x93 <= 1
 0 <= x94 <= 1
 0 <= x95 <= 1
 0 <= x96 <= 1
 0 <= x97 <= 1
 0 <= x98 <= 1
 0 <= x99 <= 1
 0 <= x100 <= 1
 0 <= x101 <= 1
 0 <= x102 <= 1
 0 <= x103 <= 1
 0 <= x104 <= 1
 0 <= x105 <= 1
 0 <= x106 <= 1
 0 <= x107 <= 1
 0 <= x108 <= 1
 0 <= x109 <= 1
 0 <= x110 <= 1
 0 <= x111 <= 1
 0 <= x112 <= 1
 0 <= x113 <= 1
 0 <= x114 <= 1
 0 <= x115 <= 1
 0 <= x116 <= 1
 0 <= x117 <= 1
 0 <= x118 <= 1
 0 <= x119 <= 1
 0 <= x120 <= 1
 0 <= x121 <= 1
 0 <= x122 <= 1
 0 <= x123 <= 1
 0 <= x124 <= 1
 0 <= x125 <= 1
 0 <= x126 <= 1
 0 <= x127 <= 1
 0 <= x128 <= 1
 0 <= x129 <= 1
Binaries
 x1  x2  x3  x4  x5  x6  x7  x8  x9  x10  x11  x12  x13  x14  x15  x16  x17 
 x18  x19  x20  x21  x22  x23  x24  x25  x26  x27  x28  x29  x30  x31  x32 
 x33  x34  x35  x36 
End
